(set-logic ALL)
(declare-fun i1 () Int)
(declare-fun it523 () Int)
(declare-fun it524 () Int)
(declare-fun i2 () Int)
(declare-fun it525 () Int)
(declare-fun i3 () Int)
(declare-fun it526 () Int)
(declare-fun i4 () Int)
(declare-fun it527 () Int)
(declare-fun i5 () Int)
(declare-fun it528 () Int)
(declare-fun i6 () Int)
(declare-fun it529 () Int)
(declare-fun i7 () Int)
(declare-fun it625 () Int)
(declare-fun it626 () Int)
(declare-fun it627 () Int)
(declare-fun it628 () Int)
(declare-fun it629 () Int)
(declare-fun it630 () Int)
(declare-fun it631 () Int)
(declare-fun it678 () Int)
(declare-fun it679 () Int)
(declare-fun it680 () Int)
(declare-fun it681 () Int)
(declare-fun it682 () Int)
(declare-fun it683 () Int)
(declare-fun it684 () Int)
(declare-fun it107 () Int)
(assert (= (+ i1 (- 1)) 0))
(assert (= (+ it523 (- 2)) 0))
(assert (= (+ (* i2 (- 1)) it524 (- 1)) 0))
(assert (= (+ (* i3 (- 1)) it525) 0))
(assert (= (+ (* i4 (- 1)) it526) 0))
(assert (= (+ (* i5 (- 1)) it527) 0))
(assert (= (+ (* i6 (- 1)) it528) 0))
(assert (= (+ (* i7 (- 1)) it529) 0))
(assert (and (<= (+ (* it528 (- 1)) (- 5)) 0)
     (> it525 0)
     (<= (+ it528 (- 5)) 0)
     (= (+ it523 (- 2)) 0)))
(assert (= (+ it625 (- 3)) 0))
(assert (= (+ (* it524 (- 1)) it626 (- 2)) 0))
(assert (= (+ it627 (* it525 (- 1))) 0))
(assert (= (+ it628 (* it525 (- 1))) 0))
(assert (= (+ it629 (* it529 (- 1))) 0))
(assert (= (+ (* it528 (- 1)) it630) 0))
(assert (= (+ it631 (* it529 (- 1))) 0))
(assert (let ((a!1 (< (+ (exp it628 2) (+ 0 (* it629 (- 1))) (exp it630 5)) (+ 0 0))))
  (and a!1 (= (+ it625 (- 3)) 0) (> it628 0))))
(assert (= (+ it678 (- 3)) 0))
(assert (= (+ it679 (* it626 (- 1)) (- 1)) 0))
(assert (= (+ (* it627 (- 1)) it680) 0))
(assert (= (+ (* it628 2) it681) 0))
(assert (= (+ (+ 0 it682) (* (exp it630 3) (+ 0 2)) (+ 0 (* it629 (- 3))))
   (+ 0 0)))
(assert (= (+ it683 (* it630 (- 1))) 0))
(assert (= (+ (* it631 (- 1)) it684) 0))
(assert (let ((a!1 (> (+ (+ 0 (* it682 3))
                 (* (exp it683 3) (+ 0 (- 2)))
                 (* (exp it681 2) (+ 0 (- 4)))
                 (* (exp it683 5) (+ 0 (- 1))))
              (+ 0 0)))
      (a!2 (* (exp (exp 4 (+ it107 (- 1))) (+ 0 2)) (exp it681 2)))
      (a!3 (* (* (exp it683 3) (exp 9 (+ it107 (- 1)))) (+ 0 (- 1))))
      (a!5 (> (+ (+ 0 it682)
                 (* (exp it681 2) (+ 0 (- 1)))
                 (* (exp it683 5) (+ 0 (- 1))))
              (+ 0 0)))
      (a!6 (* (* (+ 0 it682) (exp 9 (+ it107 (- 1)))) (+ 0 3)))
      (a!7 (* (* (exp it683 3) (exp 9 (+ it107 (- 1)))) (+ 0 (- 3)))))
(let ((a!4 (+ (* (+ 0 it682) (exp 9 (+ it107 (- 1))))
              (* a!2 (+ 0 (- 1)))
              (exp it683 3)
              (* (exp it683 5) (+ 0 (- 1)))
              a!3))
      (a!8 (> (+ a!6
                 (* a!2 (+ 0 (- 4)))
                 (exp it683 3)
                 (* (exp it683 5) (+ 0 (- 1)))
                 a!7)
              (+ 0 0))))
  (and a!1
       (> (* it681 (- 2)) 0)
       (> (* it681 (- 1)) 0)
       (> a!4 (+ 0 0))
       (>= (+ (* it678 (- 1)) 3) 0)
       a!5
       (>= (+ it107 (- 1)) 0)
       (>= (+ it678 (- 3)) 0)
       a!8))))
(check-sat)
